21 = ndim
48 = nblocks
17 1 1 1 1 1 1 1 1 1 1 1 1 1 1 1 1 1 1 1 1 1 1 1 1 1 1 1 1 1 1 1 1 1 1 1 1 1 1 1 1 1 1 1 1 1 1 1 = blockstruct
1.0, 0.0, 0.0, 0.0, 0.0, 0.0, 0.0, 0.0, 0.0, 0.0, 0.0, 0.0, 0.0, 0.0, 0.0, 0.0, 0.0, 0.0, 0.0, 0.0, 0.0 = objcoeffs
0 1 1 1 2.12610442873e-10
0 1 1 2 8.53802105941
0 1 1 3 -2.8863267619
0 1 1 4 -0.142473896194
0 1 1 5 -0.178010537632
0 1 1 6 -3.13907601827
0 1 1 7 -1.36212827291
0 1 1 8 8.33842681221
0 1 1 9 -5.28228133465
0 1 1 10 -6.44560908932e-06
0 1 1 11 -0.000527187689936
0 1 1 12 -7.84982470315e-06
0 1 1 13 -1.12290977956e-06
0 1 1 14 -1.12290977956e-06
0 1 1 15 -0.000499880126141
0 1 1 16 1.53463198725e-05
0 1 1 17 5.83319904404e-06
0 1 2 2 -1.0
0 1 3 3 -1.0
0 1 4 4 -1.0
0 1 5 5 -1.0
0 1 6 6 -1.0
0 1 7 7 -1.0
0 1 8 8 -1.0
0 1 9 9 -1.0
0 1 10 10 -1.0
0 1 11 11 -1.0
0 1 12 12 -1.0
0 1 13 13 -1.0
0 1 14 14 -1.0
0 1 15 15 -1.0
0 1 16 16 -1.0
0 1 17 17 -1.0
0 2 1 1 1e-06
0 3 1 1 1e-06
0 4 1 1 1e-06
0 5 1 1 1e-06
0 6 1 1 1e-06
0 7 1 1 -15.138999
0 8 1 1 14.939001
0 9 1 1 1.383051
0 10 1 1 -1.396949
0 11 1 1 1.311411
0 12 1 1 -1.324589
0 13 1 1 0.816896
0 14 1 1 -0.825104
0 15 1 1 0.765156
0 16 1 1 -0.772844
0 17 1 1 0.683566
0 18 1 1 -0.690434
0 19 1 1 1e-06
0 20 1 1 1e-06
0 21 1 1 1e-06
0 22 1 1 1e-06
0 23 1 1 1e-06
0 24 1 1 1e-06
0 25 1 1 1e-06
0 26 1 1 1e-06
0 27 1 1 1e-06
0 28 1 1 1e-06
0 29 1 1 1e-06
0 30 1 1 1e-06
0 31 1 1 1e-06
0 32 1 1 1e-06
0 33 1 1 1e-06
0 34 1 1 1e-06
0 35 1 1 1e-06
0 36 1 1 1e-06
0 37 1 1 1e-06
0 38 1 1 1e-06
0 39 1 1 1e-06
0 40 1 1 1e-06
0 41 1 1 1e-06
0 42 1 1 1e-06
0 43 1 1 1e-06
0 44 1 1 1e-06
0 45 1 1 1e-06
0 46 1 1 1e-06
0 47 1 1 1e-06
0 48 1 1 1e-06
1 1 1 1 1.0
2 1 1 11 -0.000379271719379
2 2 1 1 1.0
2 7 1 1 -1.0
2 8 1 1 1.0
2 9 1 1 1.0
2 10 1 1 -1.0
2 19 1 1 0.0894199982285
2 20 1 1 0.116829998791
2 21 1 1 0.031819999218
2 22 1 1 0.046179998666
2 23 1 1 0.0927900001407
2 24 1 1 0.0937099978328
3 1 1 12 -0.000379271719379
3 19 1 1 1.0
3 20 1 1 -1.0
4 1 1 13 -0.000379271719379
4 21 1 1 1.0
4 22 1 1 -1.0
5 1 1 14 -0.000379271719379
5 23 1 1 1.0
5 24 1 1 -1.0
6 1 1 15 -0.000379271719379
6 3 1 1 1.0
6 7 1 1 -1.0
6 8 1 1 1.0
6 11 1 1 1.0
6 12 1 1 -1.0
6 25 1 1 0.0894199982285
6 26 1 1 0.116829998791
6 27 1 1 0.031819999218
6 28 1 1 0.046179998666
6 29 1 1 0.0927900001407
6 30 1 1 0.0937099978328
7 1 1 2 12.9525023583
7 1 1 3 -12.4574510684
7 1 1 4 -0.49273303813
7 1 1 5 -0.683236868471
7 1 1 6 -12.2454995752
7 1 1 7 -4.0661344081
7 1 1 8 -22.139347592
7 25 1 1 1.0
7 26 1 1 -1.0
8 1 1 16 -0.000379271719379
8 27 1 1 1.0
8 28 1 1 -1.0
9 1 1 2 -4.4294647205
9 1 1 3 17.0896398497
9 1 1 4 0.434461264297
9 1 1 5 0.626321091784
9 1 1 6 12.3329163446
9 1 1 7 -2.8022137118
9 1 1 8 18.5432992586
9 1 1 9 -11.3294422836
9 29 1 1 1.0
9 30 1 1 -1.0
10 1 1 2 -0.686567014927
10 1 1 3 2.64889411207
10 1 1 4 0.0673414943231
10 1 1 5 0.0970797668581
10 1 1 6 1.91160198677
10 1 1 7 -0.434343114732
10 1 1 8 2.87421131495
10 1 1 9 -1.75606351112
10 4 1 1 1.0
10 7 1 1 -1.0
10 8 1 1 1.0
10 13 1 1 1.0
10 14 1 1 -1.0
10 31 1 1 0.0894199982285
10 32 1 1 0.116829998791
10 33 1 1 0.031819999218
10 34 1 1 0.046179998666
10 35 1 1 0.0927900001407
10 36 1 1 0.0937099978328
11 1 1 2 -16.3032577105
11 1 1 3 1.11982934605
11 1 1 4 0.318360325499
11 1 1 5 0.414341217091
11 1 1 6 6.16924280363
11 1 1 7 9.87641168697
11 31 1 1 1.0
11 32 1 1 -1.0
12 1 1 10 -0.000379271719379
12 33 1 1 1.0
12 34 1 1 -1.0
13 1 1 2 21.9944205498
13 1 1 3 -42.2814417698
13 1 1 4 -1.27467982078
13 1 1 5 -1.80683880136
13 1 1 6 -34.207489288
13 35 1 1 1.0
13 36 1 1 -1.0
14 1 1 2 2.28267973631
14 1 1 3 -3.0591005211
14 1 1 4 -0.104740280946
14 1 1 5 -0.146843470614
14 1 1 6 -2.70640905577
14 1 1 7 -0.434343102164
14 1 1 8 2.87421123179
14 1 1 9 -1.75606346031
14 5 1 1 1.0
14 7 1 1 -1.0
14 8 1 1 1.0
14 15 1 1 1.0
14 16 1 1 -1.0
14 37 1 1 0.0894199982285
14 38 1 1 0.116829998791
14 39 1 1 0.031819999218
14 40 1 1 0.046179998666
14 41 1 1 0.0927900001407
14 42 1 1 0.0937099978328
15 1 1 2 19.6524097436
15 1 1 3 -60.3640633185
15 37 1 1 1.0
15 38 1 1 -1.0
16 1 1 17 -0.000379271719379
16 39 1 1 1.0
16 40 1 1 -1.0
17 1 1 2 41.7627208722
17 41 1 1 1.0
17 42 1 1 -1.0
18 1 1 2 7.6725287252
18 1 1 3 -2.93837228197
18 1 1 4 -0.104740273816
18 1 1 5 -0.146843460391
18 1 1 6 -2.70640885699
18 1 1 7 -0.43434313309
18 1 1 8 2.87421143643
18 1 1 9 -1.75606358534
18 6 1 1 1.0
18 7 1 1 -1.0
18 8 1 1 1.0
18 17 1 1 1.0
18 18 1 1 -1.0
18 43 1 1 0.0894199982285
18 44 1 1 0.116829998791
18 45 1 1 0.031819999218
18 46 1 1 0.046179998666
18 47 1 1 0.0927900001407
18 48 1 1 0.0937099978328
19 1 1 2 -10.4423796261
19 1 1 3 54.5307984217
19 1 1 4 15.5948989221
19 1 1 5 -8.66692958143
19 43 1 1 1.0
19 44 1 1 -1.0
20 1 1 2 -19.3088094886
20 1 1 3 23.5428585097
20 1 1 4 -16.8330670762
20 45 1 1 1.0
20 46 1 1 -1.0
21 1 1 2 41.7627208722
21 47 1 1 1.0
21 48 1 1 -1.0
